153
126
141
65
93
55
104
122
63
81
78
183
95
34
77
85
171
56
44
70
90
144
141
38
84
87
113
60
62
156
87
211
89
200
241
101
44
53
131
189
119
112
0
135
105
62
135
135
58
103
95
47
106
107
76
36
56
730
89
32
45
63
64
111
241
204
121
50
169
171
177
97
61
145
115
106
59
77
43
79
164
134
43
165
106
79
84
92
160
60
121
156
153
176
37
103
131
106
97
87
